array [1..4] of int: X_INTRODUCED_26_ = [4,1,-4,-1];
array [1..2] of int: X_INTRODUCED_29_ = [1,-1];
var 1..4: X_INTRODUCED_2_;
var 1..4: X_INTRODUCED_3_;
var 1..4: X_INTRODUCED_4_;
var 1..4: X_INTRODUCED_5_;
var 1..4: X_INTRODUCED_6_;
var 1..4: X_INTRODUCED_10_;
var 1..4: X_INTRODUCED_11_;
var 1..4: X_INTRODUCED_12_;
var 1..4: X_INTRODUCED_13_;
var 1..4: X_INTRODUCED_14_;
var bool: X_INTRODUCED_30_ ::var_is_introduced :: is_defined_var;
var bool: X_INTRODUCED_32_ ::var_is_introduced :: is_defined_var;
var bool: X_INTRODUCED_33_ ::var_is_introduced :: is_defined_var;
var bool: X_INTRODUCED_35_ ::var_is_introduced :: is_defined_var;
var bool: X_INTRODUCED_37_ ::var_is_introduced :: is_defined_var;
var bool: X_INTRODUCED_38_ ::var_is_introduced :: is_defined_var;
var bool: X_INTRODUCED_41_ ::var_is_introduced :: is_defined_var;
var bool: X_INTRODUCED_42_ ::var_is_introduced :: is_defined_var;
var bool: X_INTRODUCED_44_ ::var_is_introduced :: is_defined_var;
var bool: X_INTRODUCED_45_ ::var_is_introduced :: is_defined_var;
var bool: X_INTRODUCED_48_ ::var_is_introduced :: is_defined_var;
var bool: X_INTRODUCED_49_ ::var_is_introduced :: is_defined_var;
var bool: X_INTRODUCED_51_ ::var_is_introduced :: is_defined_var;
var bool: X_INTRODUCED_52_ ::var_is_introduced :: is_defined_var;
var bool: X_INTRODUCED_54_ ::var_is_introduced :: is_defined_var;
var bool: X_INTRODUCED_55_ ::var_is_introduced :: is_defined_var;
var bool: X_INTRODUCED_58_ ::var_is_introduced :: is_defined_var;
var bool: X_INTRODUCED_60_ ::var_is_introduced :: is_defined_var;
var bool: X_INTRODUCED_61_ ::var_is_introduced :: is_defined_var;
var bool: X_INTRODUCED_63_ ::var_is_introduced :: is_defined_var;
var bool: X_INTRODUCED_65_ ::var_is_introduced :: is_defined_var;
var bool: X_INTRODUCED_66_ ::var_is_introduced :: is_defined_var;
var bool: X_INTRODUCED_69_ ::var_is_introduced :: is_defined_var;
var bool: X_INTRODUCED_70_ ::var_is_introduced :: is_defined_var;
var bool: X_INTRODUCED_72_ ::var_is_introduced :: is_defined_var;
var bool: X_INTRODUCED_73_ ::var_is_introduced :: is_defined_var;
var bool: X_INTRODUCED_76_ ::var_is_introduced :: is_defined_var;
var bool: X_INTRODUCED_77_ ::var_is_introduced :: is_defined_var;
var bool: X_INTRODUCED_79_ ::var_is_introduced :: is_defined_var;
var bool: X_INTRODUCED_80_ ::var_is_introduced :: is_defined_var;
var bool: X_INTRODUCED_82_ ::var_is_introduced :: is_defined_var;
var bool: X_INTRODUCED_83_ ::var_is_introduced :: is_defined_var;
var bool: X_INTRODUCED_86_ ::var_is_introduced :: is_defined_var;
var bool: X_INTRODUCED_88_ ::var_is_introduced :: is_defined_var;
var bool: X_INTRODUCED_89_ ::var_is_introduced :: is_defined_var;
var bool: X_INTRODUCED_91_ ::var_is_introduced :: is_defined_var;
var bool: X_INTRODUCED_93_ ::var_is_introduced :: is_defined_var;
var bool: X_INTRODUCED_94_ ::var_is_introduced :: is_defined_var;
var bool: X_INTRODUCED_97_ ::var_is_introduced :: is_defined_var;
var bool: X_INTRODUCED_98_ ::var_is_introduced :: is_defined_var;
var bool: X_INTRODUCED_100_ ::var_is_introduced :: is_defined_var;
var bool: X_INTRODUCED_101_ ::var_is_introduced :: is_defined_var;
var bool: X_INTRODUCED_104_ ::var_is_introduced :: is_defined_var;
var bool: X_INTRODUCED_105_ ::var_is_introduced :: is_defined_var;
var bool: X_INTRODUCED_107_ ::var_is_introduced :: is_defined_var;
var bool: X_INTRODUCED_108_ ::var_is_introduced :: is_defined_var;
var bool: X_INTRODUCED_110_ ::var_is_introduced :: is_defined_var;
var bool: X_INTRODUCED_111_ ::var_is_introduced :: is_defined_var;
var bool: X_INTRODUCED_114_ ::var_is_introduced :: is_defined_var;
var bool: X_INTRODUCED_116_ ::var_is_introduced :: is_defined_var;
var bool: X_INTRODUCED_117_ ::var_is_introduced :: is_defined_var;
var bool: X_INTRODUCED_119_ ::var_is_introduced :: is_defined_var;
var bool: X_INTRODUCED_121_ ::var_is_introduced :: is_defined_var;
var bool: X_INTRODUCED_122_ ::var_is_introduced :: is_defined_var;
var bool: X_INTRODUCED_125_ ::var_is_introduced :: is_defined_var;
var bool: X_INTRODUCED_126_ ::var_is_introduced :: is_defined_var;
var bool: X_INTRODUCED_128_ ::var_is_introduced :: is_defined_var;
var bool: X_INTRODUCED_129_ ::var_is_introduced :: is_defined_var;
var bool: X_INTRODUCED_132_ ::var_is_introduced :: is_defined_var;
var bool: X_INTRODUCED_133_ ::var_is_introduced :: is_defined_var;
var bool: X_INTRODUCED_135_ ::var_is_introduced :: is_defined_var;
var bool: X_INTRODUCED_136_ ::var_is_introduced :: is_defined_var;
var bool: X_INTRODUCED_138_ ::var_is_introduced :: is_defined_var;
var bool: X_INTRODUCED_139_ ::var_is_introduced :: is_defined_var;
var bool: X_INTRODUCED_142_ ::var_is_introduced :: is_defined_var;
var bool: X_INTRODUCED_144_ ::var_is_introduced :: is_defined_var;
var bool: X_INTRODUCED_145_ ::var_is_introduced :: is_defined_var;
var bool: X_INTRODUCED_147_ ::var_is_introduced :: is_defined_var;
var bool: X_INTRODUCED_149_ ::var_is_introduced :: is_defined_var;
var bool: X_INTRODUCED_150_ ::var_is_introduced :: is_defined_var;
var bool: X_INTRODUCED_153_ ::var_is_introduced :: is_defined_var;
var bool: X_INTRODUCED_154_ ::var_is_introduced :: is_defined_var;
var bool: X_INTRODUCED_156_ ::var_is_introduced :: is_defined_var;
var bool: X_INTRODUCED_157_ ::var_is_introduced :: is_defined_var;
var bool: X_INTRODUCED_160_ ::var_is_introduced :: is_defined_var;
var bool: X_INTRODUCED_161_ ::var_is_introduced :: is_defined_var;
var bool: X_INTRODUCED_163_ ::var_is_introduced :: is_defined_var;
var bool: X_INTRODUCED_164_ ::var_is_introduced :: is_defined_var;
var bool: X_INTRODUCED_166_ ::var_is_introduced :: is_defined_var;
var bool: X_INTRODUCED_167_ ::var_is_introduced :: is_defined_var;
var bool: X_INTRODUCED_170_ ::var_is_introduced :: is_defined_var;
var bool: X_INTRODUCED_172_ ::var_is_introduced :: is_defined_var;
var bool: X_INTRODUCED_173_ ::var_is_introduced :: is_defined_var;
var bool: X_INTRODUCED_175_ ::var_is_introduced :: is_defined_var;
var bool: X_INTRODUCED_177_ ::var_is_introduced :: is_defined_var;
var bool: X_INTRODUCED_178_ ::var_is_introduced :: is_defined_var;
var bool: X_INTRODUCED_181_ ::var_is_introduced :: is_defined_var;
var bool: X_INTRODUCED_182_ ::var_is_introduced :: is_defined_var;
var bool: X_INTRODUCED_184_ ::var_is_introduced :: is_defined_var;
var bool: X_INTRODUCED_185_ ::var_is_introduced :: is_defined_var;
var bool: X_INTRODUCED_188_ ::var_is_introduced :: is_defined_var;
var bool: X_INTRODUCED_189_ ::var_is_introduced :: is_defined_var;
var bool: X_INTRODUCED_191_ ::var_is_introduced :: is_defined_var;
var bool: X_INTRODUCED_192_ ::var_is_introduced :: is_defined_var;
var bool: X_INTRODUCED_194_ ::var_is_introduced :: is_defined_var;
var bool: X_INTRODUCED_195_ ::var_is_introduced :: is_defined_var;
var bool: X_INTRODUCED_198_ ::var_is_introduced :: is_defined_var;
var bool: X_INTRODUCED_200_ ::var_is_introduced :: is_defined_var;
var bool: X_INTRODUCED_201_ ::var_is_introduced :: is_defined_var;
var bool: X_INTRODUCED_203_ ::var_is_introduced :: is_defined_var;
var bool: X_INTRODUCED_205_ ::var_is_introduced :: is_defined_var;
var bool: X_INTRODUCED_206_ ::var_is_introduced :: is_defined_var;
var bool: X_INTRODUCED_209_ ::var_is_introduced :: is_defined_var;
var bool: X_INTRODUCED_210_ ::var_is_introduced :: is_defined_var;
var bool: X_INTRODUCED_212_ ::var_is_introduced :: is_defined_var;
var bool: X_INTRODUCED_213_ ::var_is_introduced :: is_defined_var;
var bool: X_INTRODUCED_216_ ::var_is_introduced :: is_defined_var;
var bool: X_INTRODUCED_217_ ::var_is_introduced :: is_defined_var;
var bool: X_INTRODUCED_219_ ::var_is_introduced :: is_defined_var;
var bool: X_INTRODUCED_220_ ::var_is_introduced :: is_defined_var;
var bool: X_INTRODUCED_222_ ::var_is_introduced :: is_defined_var;
var bool: X_INTRODUCED_223_ ::var_is_introduced :: is_defined_var;
array [1..8] of var int: r:: output_array([1..8]) = [1,2,X_INTRODUCED_2_,X_INTRODUCED_3_,X_INTRODUCED_4_,X_INTRODUCED_5_,X_INTRODUCED_6_,3];
array [1..8] of var int: c:: output_array([1..8]) = [1,3,X_INTRODUCED_10_,X_INTRODUCED_11_,X_INTRODUCED_12_,X_INTRODUCED_13_,X_INTRODUCED_14_,2];
constraint int_lin_ne([-4,-1],[X_INTRODUCED_2_,X_INTRODUCED_10_],-5);
constraint int_lin_ne([-4,-1],[X_INTRODUCED_3_,X_INTRODUCED_11_],-5);
constraint int_lin_ne([-4,-1],[X_INTRODUCED_4_,X_INTRODUCED_12_],-5);
constraint int_lin_ne([-4,-1],[X_INTRODUCED_5_,X_INTRODUCED_13_],-5);
constraint int_lin_ne([-4,-1],[X_INTRODUCED_6_,X_INTRODUCED_14_],-5);
constraint int_lin_ne([-4,-1],[X_INTRODUCED_2_,X_INTRODUCED_10_],-11);
constraint int_lin_ne([-4,-1],[X_INTRODUCED_3_,X_INTRODUCED_11_],-11);
constraint int_lin_ne([-4,-1],[X_INTRODUCED_4_,X_INTRODUCED_12_],-11);
constraint int_lin_ne([-4,-1],[X_INTRODUCED_5_,X_INTRODUCED_13_],-11);
constraint int_lin_ne([-4,-1],[X_INTRODUCED_6_,X_INTRODUCED_14_],-11);
constraint int_lin_ne(X_INTRODUCED_26_,[X_INTRODUCED_2_,X_INTRODUCED_10_,X_INTRODUCED_3_,X_INTRODUCED_11_],0);
constraint int_lin_ne(X_INTRODUCED_26_,[X_INTRODUCED_2_,X_INTRODUCED_10_,X_INTRODUCED_4_,X_INTRODUCED_12_],0);
constraint int_lin_ne(X_INTRODUCED_26_,[X_INTRODUCED_2_,X_INTRODUCED_10_,X_INTRODUCED_5_,X_INTRODUCED_13_],0);
constraint int_lin_ne(X_INTRODUCED_26_,[X_INTRODUCED_2_,X_INTRODUCED_10_,X_INTRODUCED_6_,X_INTRODUCED_14_],0);
constraint int_lin_ne([4,1],[X_INTRODUCED_2_,X_INTRODUCED_10_],14);
constraint int_lin_ne(X_INTRODUCED_26_,[X_INTRODUCED_3_,X_INTRODUCED_11_,X_INTRODUCED_4_,X_INTRODUCED_12_],0);
constraint int_lin_ne(X_INTRODUCED_26_,[X_INTRODUCED_3_,X_INTRODUCED_11_,X_INTRODUCED_5_,X_INTRODUCED_13_],0);
constraint int_lin_ne(X_INTRODUCED_26_,[X_INTRODUCED_3_,X_INTRODUCED_11_,X_INTRODUCED_6_,X_INTRODUCED_14_],0);
constraint int_lin_ne([4,1],[X_INTRODUCED_3_,X_INTRODUCED_11_],14);
constraint int_lin_ne(X_INTRODUCED_26_,[X_INTRODUCED_4_,X_INTRODUCED_12_,X_INTRODUCED_5_,X_INTRODUCED_13_],0);
constraint int_lin_ne(X_INTRODUCED_26_,[X_INTRODUCED_4_,X_INTRODUCED_12_,X_INTRODUCED_6_,X_INTRODUCED_14_],0);
constraint int_lin_ne([4,1],[X_INTRODUCED_4_,X_INTRODUCED_12_],14);
constraint int_lin_ne(X_INTRODUCED_26_,[X_INTRODUCED_5_,X_INTRODUCED_13_,X_INTRODUCED_6_,X_INTRODUCED_14_],0);
constraint int_lin_ne([4,1],[X_INTRODUCED_5_,X_INTRODUCED_13_],14);
constraint int_lin_ne([4,1],[X_INTRODUCED_6_,X_INTRODUCED_14_],14);
constraint array_bool_or([X_INTRODUCED_42_,X_INTRODUCED_45_,X_INTRODUCED_49_,X_INTRODUCED_52_,X_INTRODUCED_54_,X_INTRODUCED_55_,X_INTRODUCED_33_,X_INTRODUCED_38_],true);
constraint array_bool_or([X_INTRODUCED_61_,X_INTRODUCED_66_,X_INTRODUCED_70_,X_INTRODUCED_73_,X_INTRODUCED_77_,X_INTRODUCED_80_,X_INTRODUCED_82_,X_INTRODUCED_83_],true);
constraint array_bool_or([X_INTRODUCED_89_,X_INTRODUCED_94_,X_INTRODUCED_98_,X_INTRODUCED_101_,X_INTRODUCED_105_,X_INTRODUCED_108_,X_INTRODUCED_110_,X_INTRODUCED_111_],true);
constraint array_bool_or([X_INTRODUCED_117_,X_INTRODUCED_122_,X_INTRODUCED_126_,X_INTRODUCED_129_,X_INTRODUCED_133_,X_INTRODUCED_136_,X_INTRODUCED_138_,X_INTRODUCED_139_],true);
constraint array_bool_or([X_INTRODUCED_145_,X_INTRODUCED_150_,X_INTRODUCED_154_,X_INTRODUCED_157_,X_INTRODUCED_161_,X_INTRODUCED_164_,X_INTRODUCED_166_,X_INTRODUCED_167_],true);
constraint array_bool_or([X_INTRODUCED_173_,X_INTRODUCED_178_,X_INTRODUCED_182_,X_INTRODUCED_185_,X_INTRODUCED_189_,X_INTRODUCED_192_,X_INTRODUCED_194_,X_INTRODUCED_195_],true);
constraint array_bool_or([X_INTRODUCED_201_,X_INTRODUCED_206_,X_INTRODUCED_210_,X_INTRODUCED_213_,X_INTRODUCED_217_,X_INTRODUCED_220_,X_INTRODUCED_222_,X_INTRODUCED_223_],true);
constraint int_lin_eq_reif(X_INTRODUCED_29_,[2,1],-2,X_INTRODUCED_30_):: defines_var(X_INTRODUCED_30_);
constraint int_lin_eq_reif(X_INTRODUCED_29_,[3,1],-1,X_INTRODUCED_32_):: defines_var(X_INTRODUCED_32_);
constraint array_bool_and([X_INTRODUCED_30_,X_INTRODUCED_32_],X_INTRODUCED_33_):: defines_var(X_INTRODUCED_33_);
constraint int_lin_eq_reif(X_INTRODUCED_29_,[2,1],-1,X_INTRODUCED_35_):: defines_var(X_INTRODUCED_35_);
constraint int_lin_eq_reif(X_INTRODUCED_29_,[3,1],-2,X_INTRODUCED_37_):: defines_var(X_INTRODUCED_37_);
constraint array_bool_and([X_INTRODUCED_35_,X_INTRODUCED_37_],X_INTRODUCED_38_):: defines_var(X_INTRODUCED_38_);
constraint int_lin_eq_reif(X_INTRODUCED_29_,[3,1],1,X_INTRODUCED_41_):: defines_var(X_INTRODUCED_41_);
constraint array_bool_and([X_INTRODUCED_41_,X_INTRODUCED_30_],X_INTRODUCED_42_):: defines_var(X_INTRODUCED_42_);
constraint int_lin_eq_reif(X_INTRODUCED_29_,[2,1],1,X_INTRODUCED_44_):: defines_var(X_INTRODUCED_44_);
constraint array_bool_and([X_INTRODUCED_44_,X_INTRODUCED_37_],X_INTRODUCED_45_):: defines_var(X_INTRODUCED_45_);
constraint int_lin_eq_reif(X_INTRODUCED_29_,[2,1],2,X_INTRODUCED_48_):: defines_var(X_INTRODUCED_48_);
constraint array_bool_and([X_INTRODUCED_48_,X_INTRODUCED_32_],X_INTRODUCED_49_):: defines_var(X_INTRODUCED_49_);
constraint int_lin_eq_reif(X_INTRODUCED_29_,[3,1],2,X_INTRODUCED_51_):: defines_var(X_INTRODUCED_51_);
constraint array_bool_and([X_INTRODUCED_51_,X_INTRODUCED_35_],X_INTRODUCED_52_):: defines_var(X_INTRODUCED_52_);
constraint array_bool_and([X_INTRODUCED_41_,X_INTRODUCED_48_],X_INTRODUCED_54_):: defines_var(X_INTRODUCED_54_);
constraint array_bool_and([X_INTRODUCED_44_,X_INTRODUCED_51_],X_INTRODUCED_55_):: defines_var(X_INTRODUCED_55_);
constraint int_lin_eq_reif(X_INTRODUCED_29_,[X_INTRODUCED_2_,2],-2,X_INTRODUCED_58_):: defines_var(X_INTRODUCED_58_);
constraint int_lin_eq_reif(X_INTRODUCED_29_,[X_INTRODUCED_10_,3],-1,X_INTRODUCED_60_):: defines_var(X_INTRODUCED_60_);
constraint array_bool_and([X_INTRODUCED_58_,X_INTRODUCED_60_],X_INTRODUCED_61_):: defines_var(X_INTRODUCED_61_);
constraint int_lin_eq_reif(X_INTRODUCED_29_,[X_INTRODUCED_2_,2],-1,X_INTRODUCED_63_):: defines_var(X_INTRODUCED_63_);
constraint int_lin_eq_reif(X_INTRODUCED_29_,[X_INTRODUCED_10_,3],-2,X_INTRODUCED_65_):: defines_var(X_INTRODUCED_65_);
constraint array_bool_and([X_INTRODUCED_63_,X_INTRODUCED_65_],X_INTRODUCED_66_):: defines_var(X_INTRODUCED_66_);
constraint int_lin_eq_reif(X_INTRODUCED_29_,[X_INTRODUCED_10_,3],1,X_INTRODUCED_69_):: defines_var(X_INTRODUCED_69_);
constraint array_bool_and([X_INTRODUCED_58_,X_INTRODUCED_69_],X_INTRODUCED_70_):: defines_var(X_INTRODUCED_70_);
constraint int_lin_eq_reif(X_INTRODUCED_29_,[X_INTRODUCED_2_,2],1,X_INTRODUCED_72_):: defines_var(X_INTRODUCED_72_);
constraint array_bool_and([X_INTRODUCED_65_,X_INTRODUCED_72_],X_INTRODUCED_73_):: defines_var(X_INTRODUCED_73_);
constraint int_lin_eq_reif(X_INTRODUCED_29_,[X_INTRODUCED_2_,2],2,X_INTRODUCED_76_):: defines_var(X_INTRODUCED_76_);
constraint array_bool_and([X_INTRODUCED_60_,X_INTRODUCED_76_],X_INTRODUCED_77_):: defines_var(X_INTRODUCED_77_);
constraint int_lin_eq_reif(X_INTRODUCED_29_,[X_INTRODUCED_10_,3],2,X_INTRODUCED_79_):: defines_var(X_INTRODUCED_79_);
constraint array_bool_and([X_INTRODUCED_63_,X_INTRODUCED_79_],X_INTRODUCED_80_):: defines_var(X_INTRODUCED_80_);
constraint array_bool_and([X_INTRODUCED_69_,X_INTRODUCED_76_],X_INTRODUCED_82_):: defines_var(X_INTRODUCED_82_);
constraint array_bool_and([X_INTRODUCED_72_,X_INTRODUCED_79_],X_INTRODUCED_83_):: defines_var(X_INTRODUCED_83_);
constraint int_lin_eq_reif(X_INTRODUCED_29_,[X_INTRODUCED_3_,X_INTRODUCED_2_],-2,X_INTRODUCED_86_):: defines_var(X_INTRODUCED_86_);
constraint int_lin_eq_reif(X_INTRODUCED_29_,[X_INTRODUCED_11_,X_INTRODUCED_10_],-1,X_INTRODUCED_88_):: defines_var(X_INTRODUCED_88_);
constraint array_bool_and([X_INTRODUCED_86_,X_INTRODUCED_88_],X_INTRODUCED_89_):: defines_var(X_INTRODUCED_89_);
constraint int_lin_eq_reif(X_INTRODUCED_29_,[X_INTRODUCED_3_,X_INTRODUCED_2_],-1,X_INTRODUCED_91_):: defines_var(X_INTRODUCED_91_);
constraint int_lin_eq_reif(X_INTRODUCED_29_,[X_INTRODUCED_11_,X_INTRODUCED_10_],-2,X_INTRODUCED_93_):: defines_var(X_INTRODUCED_93_);
constraint array_bool_and([X_INTRODUCED_91_,X_INTRODUCED_93_],X_INTRODUCED_94_):: defines_var(X_INTRODUCED_94_);
constraint int_lin_eq_reif(X_INTRODUCED_29_,[X_INTRODUCED_11_,X_INTRODUCED_10_],1,X_INTRODUCED_97_):: defines_var(X_INTRODUCED_97_);
constraint array_bool_and([X_INTRODUCED_86_,X_INTRODUCED_97_],X_INTRODUCED_98_):: defines_var(X_INTRODUCED_98_);
constraint int_lin_eq_reif(X_INTRODUCED_29_,[X_INTRODUCED_3_,X_INTRODUCED_2_],1,X_INTRODUCED_100_):: defines_var(X_INTRODUCED_100_);
constraint array_bool_and([X_INTRODUCED_93_,X_INTRODUCED_100_],X_INTRODUCED_101_):: defines_var(X_INTRODUCED_101_);
constraint int_lin_eq_reif(X_INTRODUCED_29_,[X_INTRODUCED_3_,X_INTRODUCED_2_],2,X_INTRODUCED_104_):: defines_var(X_INTRODUCED_104_);
constraint array_bool_and([X_INTRODUCED_88_,X_INTRODUCED_104_],X_INTRODUCED_105_):: defines_var(X_INTRODUCED_105_);
constraint int_lin_eq_reif(X_INTRODUCED_29_,[X_INTRODUCED_11_,X_INTRODUCED_10_],2,X_INTRODUCED_107_):: defines_var(X_INTRODUCED_107_);
constraint array_bool_and([X_INTRODUCED_91_,X_INTRODUCED_107_],X_INTRODUCED_108_):: defines_var(X_INTRODUCED_108_);
constraint array_bool_and([X_INTRODUCED_97_,X_INTRODUCED_104_],X_INTRODUCED_110_):: defines_var(X_INTRODUCED_110_);
constraint array_bool_and([X_INTRODUCED_100_,X_INTRODUCED_107_],X_INTRODUCED_111_):: defines_var(X_INTRODUCED_111_);
constraint int_lin_eq_reif(X_INTRODUCED_29_,[X_INTRODUCED_4_,X_INTRODUCED_3_],-2,X_INTRODUCED_114_):: defines_var(X_INTRODUCED_114_);
constraint int_lin_eq_reif(X_INTRODUCED_29_,[X_INTRODUCED_12_,X_INTRODUCED_11_],-1,X_INTRODUCED_116_):: defines_var(X_INTRODUCED_116_);
constraint array_bool_and([X_INTRODUCED_114_,X_INTRODUCED_116_],X_INTRODUCED_117_):: defines_var(X_INTRODUCED_117_);
constraint int_lin_eq_reif(X_INTRODUCED_29_,[X_INTRODUCED_4_,X_INTRODUCED_3_],-1,X_INTRODUCED_119_):: defines_var(X_INTRODUCED_119_);
constraint int_lin_eq_reif(X_INTRODUCED_29_,[X_INTRODUCED_12_,X_INTRODUCED_11_],-2,X_INTRODUCED_121_):: defines_var(X_INTRODUCED_121_);
constraint array_bool_and([X_INTRODUCED_119_,X_INTRODUCED_121_],X_INTRODUCED_122_):: defines_var(X_INTRODUCED_122_);
constraint int_lin_eq_reif(X_INTRODUCED_29_,[X_INTRODUCED_12_,X_INTRODUCED_11_],1,X_INTRODUCED_125_):: defines_var(X_INTRODUCED_125_);
constraint array_bool_and([X_INTRODUCED_114_,X_INTRODUCED_125_],X_INTRODUCED_126_):: defines_var(X_INTRODUCED_126_);
constraint int_lin_eq_reif(X_INTRODUCED_29_,[X_INTRODUCED_4_,X_INTRODUCED_3_],1,X_INTRODUCED_128_):: defines_var(X_INTRODUCED_128_);
constraint array_bool_and([X_INTRODUCED_121_,X_INTRODUCED_128_],X_INTRODUCED_129_):: defines_var(X_INTRODUCED_129_);
constraint int_lin_eq_reif(X_INTRODUCED_29_,[X_INTRODUCED_4_,X_INTRODUCED_3_],2,X_INTRODUCED_132_):: defines_var(X_INTRODUCED_132_);
constraint array_bool_and([X_INTRODUCED_116_,X_INTRODUCED_132_],X_INTRODUCED_133_):: defines_var(X_INTRODUCED_133_);
constraint int_lin_eq_reif(X_INTRODUCED_29_,[X_INTRODUCED_12_,X_INTRODUCED_11_],2,X_INTRODUCED_135_):: defines_var(X_INTRODUCED_135_);
constraint array_bool_and([X_INTRODUCED_119_,X_INTRODUCED_135_],X_INTRODUCED_136_):: defines_var(X_INTRODUCED_136_);
constraint array_bool_and([X_INTRODUCED_125_,X_INTRODUCED_132_],X_INTRODUCED_138_):: defines_var(X_INTRODUCED_138_);
constraint array_bool_and([X_INTRODUCED_128_,X_INTRODUCED_135_],X_INTRODUCED_139_):: defines_var(X_INTRODUCED_139_);
constraint int_lin_eq_reif(X_INTRODUCED_29_,[X_INTRODUCED_5_,X_INTRODUCED_4_],-2,X_INTRODUCED_142_):: defines_var(X_INTRODUCED_142_);
constraint int_lin_eq_reif(X_INTRODUCED_29_,[X_INTRODUCED_13_,X_INTRODUCED_12_],-1,X_INTRODUCED_144_):: defines_var(X_INTRODUCED_144_);
constraint array_bool_and([X_INTRODUCED_142_,X_INTRODUCED_144_],X_INTRODUCED_145_):: defines_var(X_INTRODUCED_145_);
constraint int_lin_eq_reif(X_INTRODUCED_29_,[X_INTRODUCED_5_,X_INTRODUCED_4_],-1,X_INTRODUCED_147_):: defines_var(X_INTRODUCED_147_);
constraint int_lin_eq_reif(X_INTRODUCED_29_,[X_INTRODUCED_13_,X_INTRODUCED_12_],-2,X_INTRODUCED_149_):: defines_var(X_INTRODUCED_149_);
constraint array_bool_and([X_INTRODUCED_147_,X_INTRODUCED_149_],X_INTRODUCED_150_):: defines_var(X_INTRODUCED_150_);
constraint int_lin_eq_reif(X_INTRODUCED_29_,[X_INTRODUCED_13_,X_INTRODUCED_12_],1,X_INTRODUCED_153_):: defines_var(X_INTRODUCED_153_);
constraint array_bool_and([X_INTRODUCED_142_,X_INTRODUCED_153_],X_INTRODUCED_154_):: defines_var(X_INTRODUCED_154_);
constraint int_lin_eq_reif(X_INTRODUCED_29_,[X_INTRODUCED_5_,X_INTRODUCED_4_],1,X_INTRODUCED_156_):: defines_var(X_INTRODUCED_156_);
constraint array_bool_and([X_INTRODUCED_149_,X_INTRODUCED_156_],X_INTRODUCED_157_):: defines_var(X_INTRODUCED_157_);
constraint int_lin_eq_reif(X_INTRODUCED_29_,[X_INTRODUCED_5_,X_INTRODUCED_4_],2,X_INTRODUCED_160_):: defines_var(X_INTRODUCED_160_);
constraint array_bool_and([X_INTRODUCED_144_,X_INTRODUCED_160_],X_INTRODUCED_161_):: defines_var(X_INTRODUCED_161_);
constraint int_lin_eq_reif(X_INTRODUCED_29_,[X_INTRODUCED_13_,X_INTRODUCED_12_],2,X_INTRODUCED_163_):: defines_var(X_INTRODUCED_163_);
constraint array_bool_and([X_INTRODUCED_147_,X_INTRODUCED_163_],X_INTRODUCED_164_):: defines_var(X_INTRODUCED_164_);
constraint array_bool_and([X_INTRODUCED_153_,X_INTRODUCED_160_],X_INTRODUCED_166_):: defines_var(X_INTRODUCED_166_);
constraint array_bool_and([X_INTRODUCED_156_,X_INTRODUCED_163_],X_INTRODUCED_167_):: defines_var(X_INTRODUCED_167_);
constraint int_lin_eq_reif(X_INTRODUCED_29_,[X_INTRODUCED_6_,X_INTRODUCED_5_],-2,X_INTRODUCED_170_):: defines_var(X_INTRODUCED_170_);
constraint int_lin_eq_reif(X_INTRODUCED_29_,[X_INTRODUCED_14_,X_INTRODUCED_13_],-1,X_INTRODUCED_172_):: defines_var(X_INTRODUCED_172_);
constraint array_bool_and([X_INTRODUCED_170_,X_INTRODUCED_172_],X_INTRODUCED_173_):: defines_var(X_INTRODUCED_173_);
constraint int_lin_eq_reif(X_INTRODUCED_29_,[X_INTRODUCED_6_,X_INTRODUCED_5_],-1,X_INTRODUCED_175_):: defines_var(X_INTRODUCED_175_);
constraint int_lin_eq_reif(X_INTRODUCED_29_,[X_INTRODUCED_14_,X_INTRODUCED_13_],-2,X_INTRODUCED_177_):: defines_var(X_INTRODUCED_177_);
constraint array_bool_and([X_INTRODUCED_175_,X_INTRODUCED_177_],X_INTRODUCED_178_):: defines_var(X_INTRODUCED_178_);
constraint int_lin_eq_reif(X_INTRODUCED_29_,[X_INTRODUCED_14_,X_INTRODUCED_13_],1,X_INTRODUCED_181_):: defines_var(X_INTRODUCED_181_);
constraint array_bool_and([X_INTRODUCED_170_,X_INTRODUCED_181_],X_INTRODUCED_182_):: defines_var(X_INTRODUCED_182_);
constraint int_lin_eq_reif(X_INTRODUCED_29_,[X_INTRODUCED_6_,X_INTRODUCED_5_],1,X_INTRODUCED_184_):: defines_var(X_INTRODUCED_184_);
constraint array_bool_and([X_INTRODUCED_177_,X_INTRODUCED_184_],X_INTRODUCED_185_):: defines_var(X_INTRODUCED_185_);
constraint int_lin_eq_reif(X_INTRODUCED_29_,[X_INTRODUCED_6_,X_INTRODUCED_5_],2,X_INTRODUCED_188_):: defines_var(X_INTRODUCED_188_);
constraint array_bool_and([X_INTRODUCED_172_,X_INTRODUCED_188_],X_INTRODUCED_189_):: defines_var(X_INTRODUCED_189_);
constraint int_lin_eq_reif(X_INTRODUCED_29_,[X_INTRODUCED_14_,X_INTRODUCED_13_],2,X_INTRODUCED_191_):: defines_var(X_INTRODUCED_191_);
constraint array_bool_and([X_INTRODUCED_175_,X_INTRODUCED_191_],X_INTRODUCED_192_):: defines_var(X_INTRODUCED_192_);
constraint array_bool_and([X_INTRODUCED_181_,X_INTRODUCED_188_],X_INTRODUCED_194_):: defines_var(X_INTRODUCED_194_);
constraint array_bool_and([X_INTRODUCED_184_,X_INTRODUCED_191_],X_INTRODUCED_195_):: defines_var(X_INTRODUCED_195_);
constraint int_lin_eq_reif(X_INTRODUCED_29_,[3,X_INTRODUCED_6_],-2,X_INTRODUCED_198_):: defines_var(X_INTRODUCED_198_);
constraint int_lin_eq_reif(X_INTRODUCED_29_,[2,X_INTRODUCED_14_],-1,X_INTRODUCED_200_):: defines_var(X_INTRODUCED_200_);
constraint array_bool_and([X_INTRODUCED_198_,X_INTRODUCED_200_],X_INTRODUCED_201_):: defines_var(X_INTRODUCED_201_);
constraint int_lin_eq_reif(X_INTRODUCED_29_,[3,X_INTRODUCED_6_],-1,X_INTRODUCED_203_):: defines_var(X_INTRODUCED_203_);
constraint int_lin_eq_reif(X_INTRODUCED_29_,[2,X_INTRODUCED_14_],-2,X_INTRODUCED_205_):: defines_var(X_INTRODUCED_205_);
constraint array_bool_and([X_INTRODUCED_203_,X_INTRODUCED_205_],X_INTRODUCED_206_):: defines_var(X_INTRODUCED_206_);
constraint int_lin_eq_reif(X_INTRODUCED_29_,[2,X_INTRODUCED_14_],1,X_INTRODUCED_209_):: defines_var(X_INTRODUCED_209_);
constraint array_bool_and([X_INTRODUCED_198_,X_INTRODUCED_209_],X_INTRODUCED_210_):: defines_var(X_INTRODUCED_210_);
constraint int_lin_eq_reif(X_INTRODUCED_29_,[3,X_INTRODUCED_6_],1,X_INTRODUCED_212_):: defines_var(X_INTRODUCED_212_);
constraint array_bool_and([X_INTRODUCED_205_,X_INTRODUCED_212_],X_INTRODUCED_213_):: defines_var(X_INTRODUCED_213_);
constraint int_lin_eq_reif(X_INTRODUCED_29_,[3,X_INTRODUCED_6_],2,X_INTRODUCED_216_):: defines_var(X_INTRODUCED_216_);
constraint array_bool_and([X_INTRODUCED_200_,X_INTRODUCED_216_],X_INTRODUCED_217_):: defines_var(X_INTRODUCED_217_);
constraint int_lin_eq_reif(X_INTRODUCED_29_,[2,X_INTRODUCED_14_],2,X_INTRODUCED_219_):: defines_var(X_INTRODUCED_219_);
constraint array_bool_and([X_INTRODUCED_203_,X_INTRODUCED_219_],X_INTRODUCED_220_):: defines_var(X_INTRODUCED_220_);
constraint array_bool_and([X_INTRODUCED_209_,X_INTRODUCED_216_],X_INTRODUCED_222_):: defines_var(X_INTRODUCED_222_);
constraint array_bool_and([X_INTRODUCED_212_,X_INTRODUCED_219_],X_INTRODUCED_223_):: defines_var(X_INTRODUCED_223_);
solve  satisfy;
